job_count = 50 ;
duration = [|3, 17, 8, 19, 10, 3, 7, 2, 11, 13|9, 2, 9, 9, 14, 2, 12, 2, 15, 4|10, 15, 16, 17, 15, 8, 11, 11, 13, 12|9, 2, 11, 6, 3, 2, 8, 15, 6, 11|17, 3, 15, 21, 13, 18, 17, 2, 12, 4|23, 21, 13, 13, 2, 16, 3, 8, 14, 8|5, 14, 15, 5, 15, 5, 2, 11, 5, 5|11, 2, 6, 6, 11, 7, 14, 10, 2, 5|9, 3, 9, 14, 6, 6, 5, 16, 5, 7|23, 12, 7, 18, 7, 11, 14, 3, 9, 13|8, 8, 22, 20, 14, 10, 5, 14, 13, 4|20, 21, 11, 3, 17, 9, 13, 11, 15, 14|19, 18, 7, 5, 19, 15, 12, 11, 3, 9|15, 16, 11, 8, 20, 18, 16, 5, 2, 10|8, 9, 3, 16, 8, 2, 7, 13, 5, 14|6, 18, 22, 17, 4, 6, 12, 14, 4, 8|20, 18, 13, 20, 11, 4, 2, 8, 13, 4|24, 11, 4, 19, 12, 17, 2, 13, 11, 3|15, 5, 16, 17, 16, 9, 14, 6, 6, 13|15, 15, 6, 19, 9, 13, 10, 7, 5, 13|12, 20, 19, 20, 8, 14, 14, 9, 14, 4|13, 17, 16, 2, 9, 11, 2, 12, 14, 10|12, 13, 9, 8, 14, 12, 16, 12, 15, 11|3, 3, 3, 17, 6, 4, 9, 15, 11, 2|6, 5, 16, 5, 12, 4, 16, 16, 14, 7|11, 8, 20, 14, 4, 4, 14, 14, 13, 8|15, 8, 7, 11, 7, 3, 15, 10, 8, 6|22, 12, 2, 7, 16, 2, 4, 4, 2, 7|3, 22, 13, 18, 3, 18, 12, 7, 10, 12|18, 14, 20, 13, 7, 13, 2, 8, 10, 11|13, 3, 22, 2, 18, 6, 15, 6, 11, 6|4, 6, 17, 7, 19, 10, 12, 8, 5, 13|4, 21, 2, 11, 2, 13, 2, 16, 8, 14|23, 22, 13, 6, 9, 15, 9, 12, 12, 10|4, 18, 7, 10, 18, 14, 3, 5, 10, 2|17, 3, 20, 12, 18, 2, 10, 9, 10, 4|18, 21, 11, 3, 20, 9, 10, 5, 14, 3|22, 19, 8, 21, 19, 15, 12, 4, 7, 11|19, 7, 7, 20, 4, 17, 6, 15, 4, 2|6, 18, 7, 20, 5, 8, 11, 2, 11, 13|17, 8, 12, 12, 5, 11, 7, 15, 3, 14|4, 18, 11, 6, 12, 3, 5, 2, 8, 4|13, 4, 9, 10, 2, 10, 14, 13, 3, 13|19, 12, 5, 17, 11, 18, 12, 3, 13, 7|5, 7, 18, 6, 17, 18, 8, 8, 6, 11|15, 5, 7, 20, 2, 7, 8, 5, 2, 10|9, 5, 15, 15, 19, 11, 8, 4, 12, 9|5, 22, 6, 9, 15, 3, 3, 7, 5, 11|8, 16, 18, 4, 8, 4, 13, 12, 3, 11|15, 22, 9, 12, 9, 16, 4, 6, 13, 12|] ;
machine_count = 10 ;
cost = [|31, 24, 34, 29, 35, 30, 28, 46, 40, 32|23, 21, 24, 33, 26, 28, 41, 35, 51, 29|25, 32, 30, 20, 25, 25, 30, 25, 32, 34|31, 18, 22, 31, 40, 23, 27, 42, 27, 47|20, 31, 25, 24, 41, 30, 40, 38, 30, 52|31, 17, 19, 34, 30, 30, 44, 44, 41, 37|23, 30, 29, 26, 30, 35, 37, 37, 41, 44|24, 26, 23, 22, 24, 38, 34, 25, 28, 49|25, 28, 18, 27, 30, 29, 28, 48, 50, 52|30, 28, 33, 21, 38, 42, 42, 35, 39, 49|20, 18, 31, 25, 27, 22, 30, 32, 38, 52|31, 20, 32, 31, 24, 38, 41, 29, 38, 35|30, 26, 21, 30, 30, 42, 41, 27, 33, 29|17, 23, 33, 34, 38, 41, 26, 36, 40, 31|17, 28, 34, 37, 36, 38, 25, 37, 37, 46|18, 25, 26, 23, 25, 30, 36, 34, 34, 39|30, 22, 27, 22, 25, 31, 32, 34, 36, 27|24, 24, 23, 33, 28, 26, 35, 30, 34, 38|18, 20, 31, 33, 36, 40, 43, 44, 27, 44|22, 21, 21, 34, 33, 40, 40, 26, 45, 50|21, 25, 22, 20, 40, 25, 40, 48, 38, 35|19, 29, 19, 21, 36, 40, 27, 33, 45, 40|25, 31, 28, 24, 31, 36, 35, 39, 36, 52|28, 18, 21, 38, 34, 30, 37, 39, 34, 33|20, 20, 22, 31, 36, 26, 39, 36, 44, 30|19, 21, 22, 22, 28, 26, 45, 28, 35, 53|26, 28, 23, 25, 27, 31, 23, 26, 28, 27|17, 24, 26, 24, 27, 24, 42, 27, 38, 38|21, 17, 18, 23, 40, 40, 26, 42, 48, 45|22, 21, 28, 22, 21, 33, 28, 37, 27, 42|29, 19, 29, 26, 38, 40, 24, 33, 44, 30|23, 28, 29, 31, 39, 37, 23, 42, 34, 40|18, 17, 33, 34, 30, 31, 38, 42, 47, 47|19, 27, 20, 36, 24, 36, 37, 30, 47, 53|24, 25, 22, 21, 32, 23, 24, 25, 28, 46|27, 29, 26, 38, 36, 26, 27, 47, 30, 52|16, 18, 24, 22, 32, 36, 36, 27, 26, 50|26, 28, 19, 28, 36, 39, 38, 34, 45, 41|26, 28, 32, 26, 26, 31, 34, 42, 50, 35|27, 22, 25, 22, 38, 27, 30, 32, 48, 49|16, 32, 20, 22, 37, 28, 44, 27, 27, 37|24, 17, 18, 39, 38, 39, 45, 47, 49, 30|16, 33, 27, 21, 34, 26, 41, 44, 28, 35|19, 30, 31, 36, 35, 42, 27, 36, 41, 44|27, 28, 25, 26, 41, 37, 35, 42, 37, 35|27, 27, 22, 36, 21, 35, 38, 43, 33, 41|18, 21, 24, 35, 35, 26, 45, 46, 30, 49|19, 21, 35, 34, 31, 35, 40, 46, 36, 30|19, 22, 25, 24, 24, 22, 39, 37, 33, 42|24, 24, 25, 22, 24, 38, 44, 30, 47, 30|] ;
deadline = [33, 33, 33, 33, 33, 33, 33, 33, 33, 33, 33, 33, 33, 33, 33, 33, 33, 33, 33, 33, 33, 33, 33, 33, 33, 33, 33, 33, 33, 33, 33, 33, 33, 33, 33, 33, 33, 33, 33, 33, 33, 33, 33, 33, 33, 33, 33, 33, 33, 33] ;
release = [0, 0, 0, 0, 0, 0, 0, 0, 0, 0, 0, 0, 0, 0, 0, 0, 0, 0, 0, 0, 0, 0, 0, 0, 0, 0, 0, 0, 0, 0, 0, 0, 0, 0, 0, 0, 0, 0, 0, 0, 0, 0, 0, 0, 0, 0, 0, 0, 0, 0] ;
resource = [|3, 3, 3, 3, 3, 3, 3, 3, 3, 3|1, 1, 1, 1, 1, 1, 1, 1, 1, 1|2, 2, 2, 2, 2, 2, 2, 2, 2, 2|5, 5, 5, 5, 5, 5, 5, 5, 5, 5|2, 2, 2, 2, 2, 2, 2, 2, 2, 2|3, 3, 3, 3, 3, 3, 3, 3, 3, 3|2, 2, 2, 2, 2, 2, 2, 2, 2, 2|3, 3, 3, 3, 3, 3, 3, 3, 3, 3|1, 1, 1, 1, 1, 1, 1, 1, 1, 1|2, 2, 2, 2, 2, 2, 2, 2, 2, 2|9, 9, 9, 9, 9, 9, 9, 9, 9, 9|7, 7, 7, 7, 7, 7, 7, 7, 7, 7|3, 3, 3, 3, 3, 3, 3, 3, 3, 3|3, 3, 3, 3, 3, 3, 3, 3, 3, 3|4, 4, 4, 4, 4, 4, 4, 4, 4, 4|1, 1, 1, 1, 1, 1, 1, 1, 1, 1|4, 4, 4, 4, 4, 4, 4, 4, 4, 4|5, 5, 5, 5, 5, 5, 5, 5, 5, 5|2, 2, 2, 2, 2, 2, 2, 2, 2, 2|1, 1, 1, 1, 1, 1, 1, 1, 1, 1|2, 2, 2, 2, 2, 2, 2, 2, 2, 2|2, 2, 2, 2, 2, 2, 2, 2, 2, 2|4, 4, 4, 4, 4, 4, 4, 4, 4, 4|6, 6, 6, 6, 6, 6, 6, 6, 6, 6|5, 5, 5, 5, 5, 5, 5, 5, 5, 5|8, 8, 8, 8, 8, 8, 8, 8, 8, 8|9, 9, 9, 9, 9, 9, 9, 9, 9, 9|6, 6, 6, 6, 6, 6, 6, 6, 6, 6|6, 6, 6, 6, 6, 6, 6, 6, 6, 6|7, 7, 7, 7, 7, 7, 7, 7, 7, 7|3, 3, 3, 3, 3, 3, 3, 3, 3, 3|7, 7, 7, 7, 7, 7, 7, 7, 7, 7|7, 7, 7, 7, 7, 7, 7, 7, 7, 7|2, 2, 2, 2, 2, 2, 2, 2, 2, 2|2, 2, 2, 2, 2, 2, 2, 2, 2, 2|6, 6, 6, 6, 6, 6, 6, 6, 6, 6|5, 5, 5, 5, 5, 5, 5, 5, 5, 5|2, 2, 2, 2, 2, 2, 2, 2, 2, 2|8, 8, 8, 8, 8, 8, 8, 8, 8, 8|3, 3, 3, 3, 3, 3, 3, 3, 3, 3|3, 3, 3, 3, 3, 3, 3, 3, 3, 3|5, 5, 5, 5, 5, 5, 5, 5, 5, 5|9, 9, 9, 9, 9, 9, 9, 9, 9, 9|5, 5, 5, 5, 5, 5, 5, 5, 5, 5|6, 6, 6, 6, 6, 6, 6, 6, 6, 6|3, 3, 3, 3, 3, 3, 3, 3, 3, 3|4, 4, 4, 4, 4, 4, 4, 4, 4, 4|9, 9, 9, 9, 9, 9, 9, 9, 9, 9|7, 7, 7, 7, 7, 7, 7, 7, 7, 7|3, 3, 3, 3, 3, 3, 3, 3, 3, 3|] ;
capacities = [10, 10, 10, 10, 10, 10, 10, 10, 10, 10] ;
